(benchmark i_synth_1to1
:extrafuns ((x0 Int))
:extrafuns ((x208 Int))
:extrafuns ((x209 Int))
:extrafuns ((x210 Int))
:extrafuns ((x211 Int))
:extrafuns ((x212 Int))
:extrafuns ((x213 Int))
:extrafuns ((x214 Int))
:extrafuns ((x215 Int))
:extrafuns ((x216 Int))
:extrafuns ((x217 Int))
:extrafuns ((x218 Int))
:extrafuns ((x219 Int))
:extrafuns ((x220 Int))
:extrafuns ((x221 Int))
:extrafuns ((x222 Int))
:extrafuns ((x223 Int))
:extrafuns ((x224 Int))
:extrafuns ((x225 Int))
:extrafuns ((x226 Int))
:extrafuns ((x227 Int))
:extrafuns ((x228 Int))
:extrafuns ((x229 Int))
:extrafuns ((x230 Int))
:extrafuns ((x231 Int))
:extrafuns ((x232 Int))
:extrafuns ((x233 Int))
:extrafuns ((x234 Int))
:extrafuns ((x235 Int))
:extrafuns ((x236 Int))
:extrafuns ((x237 Int))
:extrafuns ((x238 Int))
:extrafuns ((x239 Int))
:extrafuns ((x240 Int))
:extrafuns ((x241 Int))
:extrafuns ((x242 Int))
:extrafuns ((x243 Int))
:extrafuns ((x244 Int))
:extrafuns ((x245 Int))
:extrafuns ((x246 Int))
:extrafuns ((x247 Int))
:extrafuns ((x248 Int))
:extrafuns ((x249 Int))
:extrafuns ((x250 Int))
:extrafuns ((x251 Int))
:extrafuns ((x252 Int))
:extrafuns ((x253 Int))
:extrafuns ((x254 Int))
:extrafuns ((x255 Int))
:extrafuns ((x256 Int))
:extrafuns ((x257 Int))
:extrafuns ((x258 Int))
:formula
  (exists (x1 Int)
 (x10 Int)
 (x100 Int)
 (x101 Int)
 (x102 Int)
 (x103 Int)
 (x104 Int)
 (x105 Int)
 (x106 Int)
 (x107 Int)
 (x108 Int)
 (x109 Int)
 (x11 Int)
 (x110 Int)
 (x111 Int)
 (x112 Int)
 (x113 Int)
 (x114 Int)
 (x115 Int)
 (x116 Int)
 (x117 Int)
 (x118 Int)
 (x119 Int)
 (x12 Int)
 (x120 Int)
 (x121 Int)
 (x122 Int)
 (x123 Int)
 (x124 Int)
 (x125 Int)
 (x126 Int)
 (x127 Int)
 (x128 Int)
 (x129 Int)
 (x13 Int)
 (x130 Int)
 (x131 Int)
 (x132 Int)
 (x133 Int)
 (x134 Int)
 (x135 Int)
 (x136 Int)
 (x137 Int)
 (x138 Int)
 (x139 Int)
 (x14 Int)
 (x140 Int)
 (x141 Int)
 (x142 Int)
 (x143 Int)
 (x144 Int)
 (x145 Int)
 (x146 Int)
 (x147 Int)
 (x148 Int)
 (x149 Int)
 (x15 Int)
 (x150 Int)
 (x151 Int)
 (x152 Int)
 (x153 Int)
 (x154 Int)
 (x155 Int)
 (x156 Int)
 (x157 Int)
 (x158 Int)
 (x159 Int)
 (x16 Int)
 (x160 Int)
 (x161 Int)
 (x162 Int)
 (x163 Int)
 (x164 Int)
 (x165 Int)
 (x166 Int)
 (x167 Int)
 (x168 Int)
 (x169 Int)
 (x17 Int)
 (x170 Int)
 (x171 Int)
 (x172 Int)
 (x173 Int)
 (x174 Int)
 (x175 Int)
 (x176 Int)
 (x177 Int)
 (x178 Int)
 (x179 Int)
 (x18 Int)
 (x180 Int)
 (x181 Int)
 (x182 Int)
 (x183 Int)
 (x184 Int)
 (x185 Int)
 (x186 Int)
 (x187 Int)
 (x188 Int)
 (x189 Int)
 (x19 Int)
 (x190 Int)
 (x191 Int)
 (x192 Int)
 (x193 Int)
 (x194 Int)
 (x195 Int)
 (x196 Int)
 (x197 Int)
 (x198 Int)
 (x199 Int)
 (x2 Int)
 (x20 Int)
 (x200 Int)
 (x201 Int)
 (x202 Int)
 (x203 Int)
 (x204 Int)
 (x205 Int)
 (x206 Int)
 (x207 Int)
 (x21 Int)
 (x22 Int)
 (x23 Int)
 (x24 Int)
 (x25 Int)
 (x26 Int)
 (x27 Int)
 (x28 Int)
 (x29 Int)
 (x3 Int)
 (x30 Int)
 (x31 Int)
 (x32 Int)
 (x33 Int)
 (x34 Int)
 (x35 Int)
 (x36 Int)
 (x37 Int)
 (x38 Int)
 (x39 Int)
 (x4 Int)
 (x40 Int)
 (x41 Int)
 (x42 Int)
 (x43 Int)
 (x44 Int)
 (x45 Int)
 (x46 Int)
 (x47 Int)
 (x48 Int)
 (x49 Int)
 (x5 Int)
 (x50 Int)
 (x51 Int)
 (x52 Int)
 (x53 Int)
 (x54 Int)
 (x55 Int)
 (x56 Int)
 (x57 Int)
 (x58 Int)
 (x59 Int)
 (x6 Int)
 (x60 Int)
 (x61 Int)
 (x62 Int)
 (x63 Int)
 (x64 Int)
 (x65 Int)
 (x66 Int)
 (x67 Int)
 (x68 Int)
 (x69 Int)
 (x7 Int)
 (x70 Int)
 (x71 Int)
 (x72 Int)
 (x73 Int)
 (x74 Int)
 (x75 Int)
 (x76 Int)
 (x77 Int)
 (x78 Int)
 (x79 Int)
 (x8 Int)
 (x80 Int)
 (x81 Int)
 (x82 Int)
 (x83 Int)
 (x84 Int)
 (x85 Int)
 (x86 Int)
 (x87 Int)
 (x88 Int)
 (x89 Int)
 (x9 Int)
 (x90 Int)
 (x91 Int)
 (x92 Int)
 (x93 Int)
 (x94 Int)
 (x95 Int)
 (x96 Int)
 (x97 Int)
 (x98 Int)
 (x99 Int)

  (and
    (<= (+ (* 1 x106) (* (~1) x101)) 0)
    (<= (+ (* 1 x187) (* (~1) x186)) 0)
    (<= (+ (* 1 x193) (* (~1) x189)) 0)
    (<= (+ (* 1 x197) (* (~1) x193)) 0)
    (<= (+ (* 1 x201) (* (~1) x197)) 0)
    (<= (+ (* 1 x205) (* (~1) x201)) 0)
    (<= (+ (* 1 x36) (* (~1) x31)) 0)
    (<= (+ (* 1 x46) (* (~1) x41)) 0)
    (<= (+ (* 1 x56) (* (~1) x51)) 0)
    (<= (+ (* 1 x66) (* (~1) x61)) 0)
    (<= (+ (* 1 x76) (* (~1) x71)) 0)
    (<= (+ (* 1 x86) (* (~1) x81)) 0)
    (<= (+ (* 1 x96) (* (~1) x91)) 0)
    (<= (+ (* 1 x209) (* (~1) x205)) 0)
    (<= (+ (* 1 x213) (* (~1) x209)) 0)
    (<= (+ (* 1 x217) (* (~1) x213)) 0)
    (<= (+ (* 1 x221) (* (~1) x217)) 0)
    (<= (+ (* 1 x225) (* (~1) x221)) 0)
    (<= (+ (* 1 x229) (* (~1) x225)) 0)
    (<= (+ (* 1 x233) (* (~1) x229)) 0)
    (<= (+ (* 1 x237) (* (~1) x233)) 0)
    (<= (+ (* 1 x241) (* (~1) x237)) 0)
    (<= (+ (* 1 x245) (* (~1) x241)) 0)
    (<= (+ (* 1 x248) (* (~1) x245)) 0)
    (and (<= (+ (* 1 x111) (* (~1) x30) ) 1 ) (not (<= (+ (* 1 x111) (* (~1) x30) ) 0) ))
    (and (<= (+ (* 1 x113) (* (~1) x30) ) 1 ) (not (<= (+ (* 1 x113) (* (~1) x30) ) 0) ))
    (and (<= (+ (* 1 x116) (* (~1) x115) ) 16 ) (not (<= (+ (* 1 x116) (* (~1) x115) ) 15) ))
    (and (<= (+ (* 1 x121) (* (~1) x29) ) 1 ) (not (<= (+ (* 1 x121) (* (~1) x29) ) 0) ))
    (and (<= (+ (* 1 x123) (* (~1) x25) ) 514 ) (not (<= (+ (* 1 x123) (* (~1) x25) ) 513) ))
    (and (<= (+ (* 1 x127) (* (~1) x25) ) 516 ) (not (<= (+ (* 1 x127) (* (~1) x25) ) 515) ))
    (and (<= (+ (* 1 x131) (* (~1) x25) ) 518 ) (not (<= (+ (* 1 x131) (* (~1) x25) ) 517) ))
    (and (<= (+ (* 1 x135) (* (~1) x25) ) 520 ) (not (<= (+ (* 1 x135) (* (~1) x25) ) 519) ))
    (and (<= (+ (* 1 x139) (* (~1) x25) ) 522 ) (not (<= (+ (* 1 x139) (* (~1) x25) ) 521) ))
    (and (<= (+ (* 1 x143) (* (~1) x25) ) 524 ) (not (<= (+ (* 1 x143) (* (~1) x25) ) 523) ))
    (and (<= (+ (* 1 x147) (* (~1) x25) ) 526 ) (not (<= (+ (* 1 x147) (* (~1) x25) ) 525) ))
    (and (<= (+ (* 1 x155) (* (~1) x114) ) 1 ) (not (<= (+ (* 1 x155) (* (~1) x114) ) 0) ))
    (and (<= (+ (* 1 x157) (* (~1) x114) ) 1 ) (not (<= (+ (* 1 x157) (* (~1) x114) ) 0) ))
    (and (<= (+ (* 1 x159) (* (~1) x25) ) 480 ) (not (<= (+ (* 1 x159) (* (~1) x25) ) 479) ))
    (and (<= (+ (* 1 x160) (* (~1) x25) ) 479 ) (not (<= (+ (* 1 x160) (* (~1) x25) ) 478) ))
    (and (<= (+ (* 1 x161) (* (~1) x25) ) 478 ) (not (<= (+ (* 1 x161) (* (~1) x25) ) 477) ))
    (and (<= (+ (* 1 x162) (* (~1) x25) ) 477 ) (not (<= (+ (* 1 x162) (* (~1) x25) ) 476) ))
    (and (<= (+ (* 1 x163) (* (~1) x25) ) 476 ) (not (<= (+ (* 1 x163) (* (~1) x25) ) 475) ))
    (and (<= (+ (* 1 x164) (* (~1) x25) ) 475 ) (not (<= (+ (* 1 x164) (* (~1) x25) ) 474) ))
    (and (<= (+ (* 1 x165) (* (~1) x25) ) 474 ) (not (<= (+ (* 1 x165) (* (~1) x25) ) 473) ))
    (and (<= (+ (* 1 x166) (* (~1) x25) ) 473 ) (not (<= (+ (* 1 x166) (* (~1) x25) ) 472) ))
    (and (<= (+ (* 1 x167) (* (~1) x25) ) 472 ) (not (<= (+ (* 1 x167) (* (~1) x25) ) 471) ))
    (and (<= (+ (* 1 x168) (* (~1) x25) ) 471 ) (not (<= (+ (* 1 x168) (* (~1) x25) ) 470) ))
    (and (<= (+ (* 1 x169) (* (~1) x25) ) 470 ) (not (<= (+ (* 1 x169) (* (~1) x25) ) 469) ))
    (and (<= (+ (* 1 x170) (* (~1) x25) ) 469 ) (not (<= (+ (* 1 x170) (* (~1) x25) ) 468) ))
    (and (<= (+ (* 1 x171) (* (~1) x25) ) 468 ) (not (<= (+ (* 1 x171) (* (~1) x25) ) 467) ))
    (and (<= (+ (* 1 x172) (* (~1) x25) ) 467 ) (not (<= (+ (* 1 x172) (* (~1) x25) ) 466) ))
    (and (<= (+ (* 1 x173) (* (~1) x25) ) 466 ) (not (<= (+ (* 1 x173) (* (~1) x25) ) 465) ))
    (and (<= (+ (* 1 x174) (* (~1) x25) ) 465 ) (not (<= (+ (* 1 x174) (* (~1) x25) ) 464) ))
    (and (<= (+ (* 1 x175) (* (~1) x0)) 0) (not (<= (+ (* 1 x175) (* (~1) x0)) (~ 1))))
    (and (<= (+ (* 1 x176) (* (~1) x158)) 0) (not (<= (+ (* 1 x176) (* (~1) x158)) (~1))))
    (and (<= (+ (* 1 x177) (* (~1) x119)) 0) (not (<= (+ (* 1 x177) (* (~1) x119)) (~1))))
    (and (<= (+ (* 1 x182) (* (~1) x178) ) 240 ) (not (<= (+ (* 1 x182) (* (~1) x178) ) 239) ))
    (and (<= (+ (* 1 x184) (* (~1) x183) ) 34 ) (not (<= (+ (* 1 x184) (* (~1) x183) ) 33) ))
    (and (<= (+ (* 1 x19) (* (~1) x16) ) 1 ) (not (<= (+ (* 1 x19) (* (~1) x16) ) 0) ))
    (and (<= (+ (* 1 x2) (* (~1) x1) ) 128 ) (not (<= (+ (* 1 x2) (* (~1) x1) ) 127) ))
    (and (<= (+ (* 1 x20) (* (~1) x16) ) 1 ) (not (<= (+ (* 1 x20) (* (~1) x16) ) 0) ))
    (and (<= (+ (* 1 x25) (* 1 x21)) 0) (not (<= (+ (* 1 x25) (* 1 x21)) (~ 1))))
    (and (<= (+ (* 1 x28) (* (~1) x25) ) 32 ) (not (<= (+ (* 1 x28) (* (~1) x25) ) 31) ))
    (and (<= (+ (* 1 x29) (* (~1) x0)) 0) (not (<= (+ (* 1 x29) (* (~1) x0)) (~ 1))))
    (and (<= (+ (* 1 x30) (* (~1) x0)) 0) (not (<= (+ (* 1 x30) (* (~1) x0)) (~ 1))))
    (and (<= (+ (* 1 x31) (* (~1) x27)) 0) (not (<= (+ (* 1 x31) (* (~1) x27)) (~1))))
    (and (<= (+ (* 1 x8) (* (~1) x7) ) 15 ) (not (<= (+ (* 1 x8) (* (~1) x7) ) 14) ))
    (and (<= (+ (* 1 x9) (* (~1) x1) ) 2 ) (not (<= (+ (* 1 x9) (* (~1) x1) ) 1) ))
    (and (<= (+ (* 1 x253) (* (~1) x176) ) 1 ) (not (<= (+ (* 1 x253) (* (~1) x176) ) 0) ))
    (and (<= (+ (* 1 x255) (* (~1) x176) ) 1 ) (not (<= (+ (* 1 x255) (* (~1) x176) ) 0) ))
    (and (<= (+ (* 1 x257) (* (~1) x175) ) 1 ) (not (<= (+ (* 1 x257) (* (~1) x175) ) 0) ))
    (and (not (<= (+ (* 1 x110) (* (~1) x0)) 0)) (and (<= (+ (* 1 x114) (* (~1) x111)) 0) (not (<= (+ (* 1 x114) (* (~1) x111)) (~1)))))
    (and (not (<= (+ (* 1 x154) (* (~1) x0)) 0)) (and (<= (+ (* 1 x158) (* (~1) x155)) 0) (not (<= (+ (* 1 x158) (* (~1) x155)) (~1)))))
    (and (not (<= (+ (* 1 x252) (* (~1) x0)) 0)) (and (<= (+ (* 1 x256) (* (~1) x253)) 0) (not (<= (+ (* 1 x256) (* (~1) x253)) (~1)))))
    (not (<= (+ (* 1 x100) (* (~1) x99)) 0))
    (not (<= (+ (* 1 x101) (* (~1) x100)) 0))
    (not (<= (+ (* 1 x103) (* (~1) x102)) 0))
    (not (<= (+ (* 1 x105) (* (~1) x104)) 0))
    (not (<= (+ (* 1 x108) (* (~1) x107)) 0))
    (not (<= (+ (* 1 x117) (* (~1) x28)) 0))
    (not (<= (+ (* 1 x120) (* (~1) x118)) 0))
    (not (<= (+ (* 1 x125) (* (~1) x124)) 0))
    (not (<= (+ (* 1 x126) (* (~1) x125)) 0))
    (not (<= (+ (* 1 x129) (* (~1) x128)) 0))
    (not (<= (+ (* 1 x130) (* (~1) x129)) 0))
    (not (<= (+ (* 1 x133) (* (~1) x132)) 0))
    (not (<= (+ (* 1 x134) (* (~1) x133)) 0))
    (not (<= (+ (* 1 x137) (* (~1) x136)) 0))
    (not (<= (+ (* 1 x138) (* (~1) x137)) 0))
    (not (<= (+ (* 1 x141) (* (~1) x140)) 0))
    (not (<= (+ (* 1 x142) (* (~1) x141)) 0))
    (not (<= (+ (* 1 x145) (* (~1) x144)) 0))
    (not (<= (+ (* 1 x146) (* (~1) x145)) 0))
    (not (<= (+ (* 1 x149) (* (~1) x148)) 0))
    (not (<= (+ (* 1 x150) (* (~1) x149)) 0))
    (not (<= (+ (* 1 x152) (* (~1) x151)) 0))
    (not (<= (+ (* 1 x178) (* (~1) x175)) 0))
    (not (<= (+ (* 1 x179) (* (~1) x175)) 0))
    (not (<= (+ (* 1 x180) (* (~1) x179)) 0))
    (not (<= (+ (* 1 x181) (* (~1) x159)) 0))
    (not (<= (+ (* 1 x185) (* (~1) x160)) 0))
    (not (<= (+ (* 1 x189) (* (~1) x188)) 0))
    (not (<= (+ (* 1 x190) (* (~1) x161)) 0))
    (not (<= (+ (* 1 x192) (* (~1) x191)) 0))
    (not (<= (+ (* 1 x194) (* (~1) x162)) 0))
    (not (<= (+ (* 1 x196) (* (~1) x195)) 0))
    (not (<= (+ (* 1 x198) (* (~1) x163)) 0))
    (not (<= (+ (* 1 x200) (* (~1) x199)) 0))
    (not (<= (+ (* 1 x202) (* (~1) x164)) 0))
    (not (<= (+ (* 1 x204) (* (~1) x203)) 0))
    (not (<= (+ (* 1 x206) (* (~1) x165)) 0))
    (not (<= (+ (* 1 x27) (* (~1) x26)) 0))
    (not (<= (+ (* 1 x33) (* (~1) x32)) 0))
    (not (<= (+ (* 1 x35) (* (~1) x34)) 0))
    (not (<= (+ (* 1 x38) (* (~1) x37)) 0))
    (not (<= (+ (* 1 x40) (* (~1) x39)) 0))
    (not (<= (+ (* 1 x41) (* (~1) x40)) 0))
    (not (<= (+ (* 1 x43) (* (~1) x42)) 0))
    (not (<= (+ (* 1 x45) (* (~1) x44)) 0))
    (not (<= (+ (* 1 x48) (* (~1) x47)) 0))
    (not (<= (+ (* 1 x50) (* (~1) x49)) 0))
    (not (<= (+ (* 1 x51) (* (~1) x50)) 0))
    (not (<= (+ (* 1 x53) (* (~1) x52)) 0))
    (not (<= (+ (* 1 x55) (* (~1) x54)) 0))
    (not (<= (+ (* 1 x58) (* (~1) x57)) 0))
    (not (<= (+ (* 1 x60) (* (~1) x59)) 0))
    (not (<= (+ (* 1 x61) (* (~1) x60)) 0))
    (not (<= (+ (* 1 x63) (* (~1) x62)) 0))
    (not (<= (+ (* 1 x65) (* (~1) x64)) 0))
    (not (<= (+ (* 1 x68) (* (~1) x67)) 0))
    (not (<= (+ (* 1 x70) (* (~1) x69)) 0))
    (not (<= (+ (* 1 x71) (* (~1) x70)) 0))
    (not (<= (+ (* 1 x73) (* (~1) x72)) 0))
    (not (<= (+ (* 1 x75) (* (~1) x74)) 0))
    (not (<= (+ (* 1 x78) (* (~1) x77)) 0))
    (not (<= (+ (* 1 x80) (* (~1) x79)) 0))
    (not (<= (+ (* 1 x81) (* (~1) x80)) 0))
    (not (<= (+ (* 1 x83) (* (~1) x82)) 0))
    (not (<= (+ (* 1 x85) (* (~1) x84)) 0))
    (not (<= (+ (* 1 x88) (* (~1) x87)) 0))
    (not (<= (+ (* 1 x90) (* (~1) x89)) 0))
    (not (<= (+ (* 1 x91) (* (~1) x90)) 0))
    (not (<= (+ (* 1 x93) (* (~1) x92)) 0))
    (not (<= (+ (* 1 x95) (* (~1) x94)) 0))
    (not (<= (+ (* 1 x98) (* (~1) x97)) 0))
    (not (<= (+ (* 1 x208) (* (~1) x207)) 0))
    (not (<= (+ (* 1 x210) (* (~1) x166)) 0))
    (not (<= (+ (* 1 x212) (* (~1) x211)) 0))
    (not (<= (+ (* 1 x214) (* (~1) x167)) 0))
    (not (<= (+ (* 1 x216) (* (~1) x215)) 0))
    (not (<= (+ (* 1 x218) (* (~1) x168)) 0))
    (not (<= (+ (* 1 x220) (* (~1) x219)) 0))
    (not (<= (+ (* 1 x222) (* (~1) x169)) 0))
    (not (<= (+ (* 1 x224) (* (~1) x223)) 0))
    (not (<= (+ (* 1 x226) (* (~1) x170)) 0))
    (not (<= (+ (* 1 x228) (* (~1) x227)) 0))
    (not (<= (+ (* 1 x230) (* (~1) x171)) 0))
    (not (<= (+ (* 1 x232) (* (~1) x231)) 0))
    (not (<= (+ (* 1 x234) (* (~1) x172)) 0))
    (not (<= (+ (* 1 x236) (* (~1) x235)) 0))
    (not (<= (+ (* 1 x238) (* (~1) x173)) 0))
    (not (<= (+ (* 1 x240) (* (~1) x239)) 0))
    (not (<= (+ (* 1 x242) (* (~1) x174)) 0))
    (not (<= (+ (* 1 x244) (* (~1) x243)) 0))
    (not (<= (+ (* 1 x247) (* (~1) x246)) 0))
    (not (<= (+ (* 1 x250) (* (~1) x249)) 0))
    (or (and (<= (+ (* 1 x109) (* (~1) x0)) (~ 32768)) (not (<= (+ (* 1 x112) (* (~1) x0)) 0))) (and (not (<= (+ (* 1 x109) (* (~1) x0)) (~ 32768))) (<= (+ (* 1 x112) (* (~1) x0)) 0)))
    (or (and (<= (+ (* 1 x153) (* (~1) x0)) (~ 32768)) (not (<= (+ (* 1 x156) (* (~1) x0)) 0))) (and (not (<= (+ (* 1 x153) (* (~1) x0)) (~ 32768))) (<= (+ (* 1 x156) (* (~1) x0)) 0)))
    (or (and (<= (+ (* 1 x18) (* (~1) x0)) 0) (and (<= (+ (* 1 x21) (* (~1) x16)) 0) (not (<= (+ (* 1 x21) (* (~1) x16)) (~1))))) (and (not (<= (+ (* 1 x18) (* (~1) x0)) 0)) (and (<= (+ (* 1 x21) (* (~1) x20)) 0) (not (<= (+ (* 1 x21) (* (~1) x20)) (~1))))))
    (or (and (<= (+ (* 1 x18) (* (~1) x0)) 0) (and (<= (+ (* 1 x23) (* (~1) x24)) 0) (not (<= (+ (* 1 x23) (* (~1) x24)) (~1))))) (and (not (<= (+ (* 1 x18) (* (~1) x0)) 0)) (and (<= (+ (* 1 x23) (* (~1) x22)) 0) (not (<= (+ (* 1 x23) (* (~1) x22)) (~1))))))
    (or (and (<= (+ (* 1 x6) (* (~1) x0)) 0) (and (<= (+ (* 1 x11) (* (~1) x10)) 0) (not (<= (+ (* 1 x11) (* (~1) x10)) (~1))))) (and (not (<= (+ (* 1 x6) (* (~1) x0)) 0)) (and (<= (+ (* 1 x11) (* (~1) x12)) 0) (not (<= (+ (* 1 x11) (* (~1) x12)) (~1))))))
    (or (and (<= (+ (* 1 x6) (* (~1) x0)) 0) (and (<= (+ (* 1 x14) (* (~1) x13)) 0) (not (<= (+ (* 1 x14) (* (~1) x13)) (~1))))) (and (not (<= (+ (* 1 x6) (* (~1) x0)) 0)) (and (<= (+ (* 1 x14) (* (~1) x15)) 0) (not (<= (+ (* 1 x14) (* (~1) x15)) (~1))))))
    (or (and (<= (+ (* 1 x251) (* (~1) x0)) (~ 32768)) (not (<= (+ (* 1 x254) (* (~1) x0)) 0))) (and (not (<= (+ (* 1 x251) (* (~1) x0)) (~ 32768))) (<= (+ (* 1 x254) (* (~1) x0)) 0)))
    (or (and (and (<= (+ (* 1 x121) (* (~1) x0)) 16) (not (<= (+ (* 1 x121) (* (~1) x0)) 15))) (not (<= (+ (* 1 x122) (* (~1) x0)) 0))) (and (not (and (<= (+ (* 1 x121) (* (~1) x0)) 16) (not (<= (+ (* 1 x121) (* (~1) x0)) 15)))) (<= (+ (* 1 x122) (* (~1) x0)) 0)))
    (or (and (and (<= (+ (* 1 x17) (* (~1) x0)) 0) (not (<= (+ (* 1 x17) (* (~1) x0)) (~ 1)))) (not (<= (+ (* 1 x18) (* (~1) x0)) 0))) (and (not (and (<= (+ (* 1 x17) (* (~1) x0)) 0) (not (<= (+ (* 1 x17) (* (~1) x0)) (~ 1))))) (<= (+ (* 1 x18) (* (~1) x0)) 0)))
    (or (and (and (<= (+ (* 1 x3) (* (~1) x0)) 0) (not (<= (+ (* 1 x3) (* (~1) x0)) (~ 1)))) (not (<= (+ (* 1 x4) (* (~1) x0)) 0))) (and (not (and (<= (+ (* 1 x3) (* (~1) x0)) 0) (not (<= (+ (* 1 x3) (* (~1) x0)) (~ 1))))) (<= (+ (* 1 x4) (* (~1) x0)) 0)))
    (or (and (and (<= (+ (* 1 x5) (* (~1) x0)) 0) (not (<= (+ (* 1 x5) (* (~1) x0)) (~ 1)))) (not (<= (+ (* 1 x6) (* (~1) x0)) 0))) (and (not (and (<= (+ (* 1 x5) (* (~1) x0)) 0) (not (<= (+ (* 1 x5) (* (~1) x0)) (~ 1))))) (<= (+ (* 1 x6) (* (~1) x0)) 0)))
    (or (and (and (<= (+ (* 1 x257) (* (~1) x0)) 15) (not (<= (+ (* 1 x257) (* (~1) x0)) 14))) (not (<= (+ (* 1 x258) (* (~1) x0)) 0))) (and (not (and (<= (+ (* 1 x257) (* (~1) x0)) 15) (not (<= (+ (* 1 x257) (* (~1) x0)) 14)))) (<= (+ (* 1 x258) (* (~1) x0)) 0)))
    (or (and (not (<= (+ (* 1 x109) (* (~1) x0)) 32766)) (not (<= (+ (* 1 x110) (* (~1) x0)) 0))) (and (not (not (<= (+ (* 1 x109) (* (~1) x0)) 32766))) (<= (+ (* 1 x110) (* (~1) x0)) 0)))
    (or (and (not (<= (+ (* 1 x153) (* (~1) x0)) 32766)) (not (<= (+ (* 1 x154) (* (~1) x0)) 0))) (and (not (not (<= (+ (* 1 x153) (* (~1) x0)) 32766))) (<= (+ (* 1 x154) (* (~1) x0)) 0)))
    (or (and (not (<= (+ (* 1 x251) (* (~1) x0)) 32766)) (not (<= (+ (* 1 x252) (* (~1) x0)) 0))) (and (not (not (<= (+ (* 1 x251) (* (~1) x0)) 32766))) (<= (+ (* 1 x252) (* (~1) x0)) 0)))
  ))
)
